10	5
0	2	1	2
1	4	8	9	4	10
2	5	3	8	10	9	5
3	1	6
4	1	3
5	1	7
6	1	11
7	1	11
8	1	11
9	1	11
10	1	11
11	0
0	0	0	0	0	0	0
1	1	0	0	5	0	4
2	1	0	0	5	1	0
3	7	0	0	1	2	3
4	5	5	5	3	1	5
5	6	1	4	3	0	2
6	4	2	5	0	5	1
7	2	1	0	0	0	0
8	8	2	0	0	0	0
9	9	0	0	0	2	0
10	8	3	5	0	0	0
11	0	0	0	0	0	0
8	10	8	7	8
